(set-logic HORN)
(declare-datatypes ((Sign_4 0)) (((Pos_2 ) (Neg_3 ))))
(declare-fun diseqSign_2 (Sign_4 Sign_4) Bool)
(declare-fun isPos_2 (Sign_4) Bool)
(declare-fun isNeg_2 (Sign_4) Bool)
(assert (isPos_2 Pos_2))
(assert (isNeg_2 Neg_3))
(assert (diseqSign_2 Pos_2 Neg_3))
(assert (diseqSign_2 Neg_3 Pos_2))
(declare-datatypes ((Nat_374 0)) (((zero_86 ) (succ_84 (p_237 Nat_374)))))
(declare-fun diseqNat_374 (Nat_374 Nat_374) Bool)
(declare-fun p_239 (Nat_374 Nat_374) Bool)
(declare-fun iszero_84 (Nat_374) Bool)
(declare-fun issucc_84 (Nat_374) Bool)
(assert (forall ((x_34773 Nat_374))
	(p_239 x_34773 (succ_84 x_34773))))
(assert (iszero_84 zero_86))
(assert (forall ((x_34775 Nat_374))
	(issucc_84 (succ_84 x_34775))))
(assert (forall ((x_34776 Nat_374))
	(diseqNat_374 zero_86 (succ_84 x_34776))))
(assert (forall ((x_34777 Nat_374))
	(diseqNat_374 (succ_84 x_34777) zero_86)))
(assert (forall ((x_34778 Nat_374) (x_34779 Nat_374))
	(=> (diseqNat_374 x_34778 x_34779)
	    (diseqNat_374 (succ_84 x_34778) (succ_84 x_34779)))))
(declare-datatypes ((Integer_5 0)) (((P_238 (projP_10 Nat_374)) (N_76 (projN_10 Nat_374)))))
(declare-fun diseqInteger_5 (Integer_5 Integer_5) Bool)
(declare-fun projP_11 (Nat_374 Integer_5) Bool)
(declare-fun projN_11 (Nat_374 Integer_5) Bool)
(declare-fun isP_7 (Integer_5) Bool)
(declare-fun isN_5 (Integer_5) Bool)
(assert (forall ((x_34780 Nat_374))
	(projP_11 x_34780 (P_238 x_34780))))
(assert (forall ((x_34782 Nat_374))
	(projN_11 x_34782 (N_76 x_34782))))
(assert (forall ((x_34784 Nat_374))
	(isP_7 (P_238 x_34784))))
(assert (forall ((x_34785 Nat_374))
	(isN_5 (N_76 x_34785))))
(assert (forall ((x_34786 Nat_374) (x_34787 Nat_374))
	(diseqInteger_5 (P_238 x_34786) (N_76 x_34787))))
(assert (forall ((x_34788 Nat_374) (x_34789 Nat_374))
	(diseqInteger_5 (N_76 x_34788) (P_238 x_34789))))
(assert (forall ((x_34790 Nat_374) (x_34791 Nat_374))
	(=> (diseqNat_374 x_34790 x_34791)
	    (diseqInteger_5 (P_238 x_34790) (P_238 x_34791)))))
(assert (forall ((x_34792 Nat_374) (x_34793 Nat_374))
	(=> (diseqNat_374 x_34792 x_34793)
	    (diseqInteger_5 (N_76 x_34792) (N_76 x_34793)))))
(declare-fun toInteger_2 (Integer_5 Sign_4 Nat_374) Bool)
(assert (forall ((z_1282 Nat_374))
	(toInteger_2 (N_76 z_1282) Neg_3 (succ_84 z_1282))))
(assert (toInteger_2 (P_238 zero_86) Neg_3 zero_86))
(assert (forall ((y_1383 Nat_374))
	(toInteger_2 (P_238 y_1383) Pos_2 y_1383)))
(declare-fun sign_5 (Sign_4 Integer_5) Bool)
(assert (forall ((z_1283 Nat_374))
	(sign_5 Neg_3 (N_76 z_1283))))
(assert (forall ((y_1384 Nat_374))
	(sign_5 Pos_2 (P_238 y_1384))))
(declare-fun plus_78 (Nat_374 Nat_374 Nat_374) Bool)
(assert (forall ((x_34716 Nat_374) (z_1284 Nat_374) (y_1385 Nat_374))
	(=> (plus_78 x_34716 z_1284 y_1385)
	    (plus_78 (succ_84 x_34716) (succ_84 z_1284) y_1385))))
(assert (forall ((x_34717 Nat_374))
	(plus_78 x_34717 zero_86 x_34717)))
(declare-fun times_18 (Nat_374 Nat_374 Nat_374) Bool)
(assert (forall ((x_34718 Nat_374) (x_34719 Nat_374) (z_1285 Nat_374) (y_1386 Nat_374))
	(=>	(and (times_18 x_34719 z_1285 y_1386)
			(plus_78 x_34718 y_1386 x_34719))
		(times_18 x_34718 (succ_84 z_1285) y_1386))))
(assert (forall ((y_1386 Nat_374))
	(times_18 zero_86 zero_86 y_1386)))
(declare-fun opposite_2 (Sign_4 Sign_4) Bool)
(assert (opposite_2 Pos_2 Neg_3))
(assert (opposite_2 Neg_3 Pos_2))
(declare-fun timesSign_2 (Sign_4 Sign_4 Sign_4) Bool)
(assert (forall ((x_34724 Sign_4) (y_1387 Sign_4))
	(=> (opposite_2 x_34724 y_1387)
	    (timesSign_2 x_34724 Neg_3 y_1387))))
(assert (forall ((x_34726 Sign_4))
	(timesSign_2 x_34726 Pos_2 x_34726)))
(declare-fun one_9 (Integer_5) Bool)
(assert (one_9 (P_238 (succ_84 zero_86))))
(declare-fun absVal_2 (Nat_374 Integer_5) Bool)
(assert (forall ((x_34728 Nat_374) (m_29 Nat_374))
	(=> (plus_78 x_34728 (succ_84 zero_86) m_29)
	    (absVal_2 x_34728 (N_76 m_29)))))
(assert (forall ((n_77 Nat_374))
	(absVal_2 n_77 (P_238 n_77))))
(declare-fun times_19 (Integer_5 Integer_5 Integer_5) Bool)
(assert (forall ((x_34731 Integer_5) (x_34732 Sign_4) (x_34733 Sign_4) (x_34734 Sign_4) (x_34735 Nat_374) (x_34736 Nat_374) (x_34737 Nat_374) (x_34696 Integer_5) (y_1388 Integer_5))
	(=>	(and (sign_5 x_34732 x_34696)
			(sign_5 x_34733 y_1388)
			(timesSign_2 x_34734 x_34732 x_34733)
			(absVal_2 x_34735 x_34696)
			(absVal_2 x_34736 y_1388)
			(times_18 x_34737 x_34735 x_34736)
			(toInteger_2 x_34731 x_34734 x_34737))
		(times_19 x_34731 x_34696 y_1388))))
(assert (forall ((x_34739 Integer_5) (x_34740 Integer_5) (x_34697 Integer_5))
	(=>	(and true
			(diseqInteger_5 x_34697 x_34740)
			(one_9 x_34739)
			(times_19 x_34740 x_34697 x_34739))
		false)))
(assert (forall ((x_34741 Nat_374) (x_34742 Nat_374) (x_34743 Nat_374) (x_34744 Nat_374) (x_34698 Nat_374) (y_1389 Nat_374) (z_1286 Nat_374))
	(=>	(and true
			(diseqNat_374 x_34742 x_34744)
			(times_18 x_34741 y_1389 z_1286)
			(times_18 x_34742 x_34698 x_34741)
			(times_18 x_34743 x_34698 y_1389)
			(times_18 x_34744 x_34743 z_1286))
		false)))
(assert (forall ((x_34745 Nat_374) (x_34746 Nat_374) (x_34747 Nat_374) (x_34748 Nat_374) (x_34699 Nat_374) (y_1390 Nat_374) (z_1287 Nat_374))
	(=>	(and true
			(diseqNat_374 x_34746 x_34748)
			(plus_78 x_34745 y_1390 z_1287)
			(plus_78 x_34746 x_34699 x_34745)
			(plus_78 x_34747 x_34699 y_1390)
			(plus_78 x_34748 x_34747 z_1287))
		false)))
(assert (forall ((x_34749 Nat_374) (x_34750 Nat_374) (x_34700 Nat_374) (y_1391 Nat_374))
	(=>	(and true
			(diseqNat_374 x_34749 x_34750)
			(times_18 x_34749 x_34700 y_1391)
			(times_18 x_34750 y_1391 x_34700))
		false)))
(assert (forall ((x_34751 Nat_374) (x_34752 Nat_374) (x_34701 Nat_374) (y_1392 Nat_374))
	(=>	(and true
			(diseqNat_374 x_34751 x_34752)
			(plus_78 x_34751 x_34701 y_1392)
			(plus_78 x_34752 y_1392 x_34701))
		false)))
(assert (forall ((x_34753 Nat_374) (x_34754 Nat_374) (x_34755 Nat_374) (x_34756 Nat_374) (x_34757 Nat_374) (x_34702 Nat_374) (y_1393 Nat_374) (z_1288 Nat_374))
	(=>	(and true
			(diseqNat_374 x_34754 x_34757)
			(plus_78 x_34753 y_1393 z_1288)
			(times_18 x_34754 x_34702 x_34753)
			(times_18 x_34755 x_34702 y_1393)
			(times_18 x_34756 x_34702 z_1288)
			(plus_78 x_34757 x_34755 x_34756))
		false)))
(assert (forall ((x_34758 Nat_374) (x_34759 Nat_374) (x_34760 Nat_374) (x_34761 Nat_374) (x_34762 Nat_374) (x_34703 Nat_374) (y_1394 Nat_374) (z_1289 Nat_374))
	(=>	(and true
			(diseqNat_374 x_34759 x_34762)
			(plus_78 x_34758 x_34703 y_1394)
			(times_18 x_34759 x_34758 z_1289)
			(times_18 x_34760 x_34703 z_1289)
			(times_18 x_34761 y_1394 z_1289)
			(plus_78 x_34762 x_34760 x_34761))
		false)))
(assert (forall ((x_34763 Nat_374) (x_34704 Nat_374))
	(=>	(and true
			(diseqNat_374 x_34763 x_34704)
			(times_18 x_34763 x_34704 (succ_84 zero_86)))
		false)))
(assert (forall ((x_34764 Nat_374) (x_34705 Nat_374))
	(=>	(and true
			(diseqNat_374 x_34764 x_34705)
			(times_18 x_34764 (succ_84 zero_86) x_34705))
		false)))
(assert (forall ((x_34765 Nat_374) (x_34706 Nat_374))
	(=>	(and true
			(diseqNat_374 x_34765 x_34706)
			(plus_78 x_34765 x_34706 zero_86))
		false)))
(assert (forall ((x_34766 Nat_374) (x_34707 Nat_374))
	(=>	(and true
			(diseqNat_374 x_34766 x_34707)
			(plus_78 x_34766 zero_86 x_34707))
		false)))
(assert (forall ((x_34767 Nat_374) (x_34708 Nat_374))
	(=>	(and true
			(diseqNat_374 x_34767 zero_86)
			(times_18 x_34767 x_34708 zero_86))
		false)))
(assert (forall ((x_34768 Nat_374) (x_34709 Nat_374))
	(=>	(and true
			(diseqNat_374 x_34768 zero_86)
			(times_18 x_34768 zero_86 x_34709))
		false)))
(check-sat)
